(set-info :smt-lib-version 2.6)
(set-logic QF_SLIA)
(set-info :source |
Generated by: Andrew Reynolds
Generated on: 2018-04-25
Generator: Kudzu, converted to v2.6 by CVC4
Application: Symbolic Execution of Javascript
Target solver: Kaluza
Publications: "A symbolic execution framework for JavaScript" by P. Saxena, D. Akhawe, S. Hanna, F. Mao, S. McCamant, and D. Song, 2010.
|)
(set-info :license "https://creativecommons.org/licenses/by/4.0/")
(set-info :category "industrial")
(set-info :status unknown)



(declare-fun PCTEMP_LHS_1 () String)
(declare-fun PCTEMP_LHS_11 () String)
(declare-fun PCTEMP_LHS_2 () String)
(declare-fun PCTEMP_LHS_3 () String)
(declare-fun PCTEMP_LHS_4 () String)
(declare-fun PCTEMP_LHS_5 () String)
(declare-fun PCTEMP_LHS_6 () String)
(declare-fun PCTEMP_LHS_7 () String)
(declare-fun PCTEMP_LHS_7_idx_0 () String)
(declare-fun PCTEMP_LHS_9 () String)
(declare-fun T1_33 () String)
(declare-fun T2_33 () String)
(declare-fun T_10 () Bool)
(declare-fun T_11 () Bool)
(declare-fun T_12 () Bool)
(declare-fun T_13 () Bool)
(declare-fun T_14 () Bool)
(declare-fun T_15 () Bool)
(declare-fun T_16 () Bool)
(declare-fun T_17 () Bool)
(declare-fun T_18 () String)
(declare-fun T_1a () Int)
(declare-fun T_1b () Bool)
(declare-fun T_1c () String)
(declare-fun T_1d () String)
(declare-fun T_1e () Bool)
(declare-fun T_1f () String)
(declare-fun T_22 () Bool)
(declare-fun T_23 () Bool)
(declare-fun T_24 () Bool)
(declare-fun T_25 () Bool)
(declare-fun T_26 () Int)
(declare-fun T_27 () Bool)
(declare-fun T_28 () Bool)
(declare-fun T_29 () String)
(declare-fun T_2a () Int)
(declare-fun T_2b () Bool)
(declare-fun T_2c () String)
(declare-fun T_2e () Int)
(declare-fun T_2f () Bool)
(declare-fun T_30 () Bool)
(declare-fun T_31 () Int)
(declare-fun T_32 () Bool)
(declare-fun T_33 () Bool)
(declare-fun T_34 () String)
(declare-fun T_35 () String)
(declare-fun T_36 () Bool)
(declare-fun T_37 () String)
(declare-fun T_3a () Bool)
(declare-fun T_3b () Bool)
(declare-fun T_3c () Bool)
(declare-fun T_3d () Bool)
(declare-fun T_3e () String)
(declare-fun T_3f () Int)
(declare-fun T_40 () Bool)
(declare-fun T_41 () Int)
(declare-fun T_42 () Bool)
(declare-fun T_43 () Bool)
(declare-fun T_8 () Bool)
(declare-fun T_9 () Bool)
(declare-fun T_a () Bool)
(declare-fun T_b () Bool)
(declare-fun T_c () Bool)
(declare-fun T_d () Bool)
(declare-fun T_e () Bool)
(declare-fun T_f () Bool)
(assert (not (str.in_re PCTEMP_LHS_1 (re.++ (str.to_re "%") (str.to_re "h") (str.to_re "o") (str.to_re "s") (str.to_re "t") (str.to_re "%")))))
(assert (= PCTEMP_LHS_1 "http://www.ig.gmodules.com/gadgets/proxy/refresh=%refresh%&container=%container%%rewriteMime%&gadget=%gadget%/%rawurl%"))
(assert (not (str.in_re PCTEMP_LHS_2 (re.++ (str.to_re "%") (str.to_re "r") (str.to_re "a") (str.to_re "w") (str.to_re "u") (str.to_re "r") (str.to_re "l") (str.to_re "%")))))
(assert (= PCTEMP_LHS_2 PCTEMP_LHS_1))
(assert (not (str.in_re PCTEMP_LHS_3 (re.++ (str.to_re "%") (str.to_re "r") (str.to_re "e") (str.to_re "f") (str.to_re "r") (str.to_re "e") (str.to_re "s") (str.to_re "h") (str.to_re "%")))))
(assert (= PCTEMP_LHS_3 PCTEMP_LHS_2))
(assert (not (str.in_re PCTEMP_LHS_4 (re.++ (str.to_re "%") (str.to_re "g") (str.to_re "a") (str.to_re "d") (str.to_re "g") (str.to_re "e") (str.to_re "t") (str.to_re "%")))))
(assert (= PCTEMP_LHS_4 PCTEMP_LHS_3))
(assert (not (str.in_re PCTEMP_LHS_5 (re.++ (str.to_re "%") (str.to_re "c") (str.to_re "o") (str.to_re "n") (str.to_re "t") (str.to_re "a") (str.to_re "i") (str.to_re "n") (str.to_re "e") (str.to_re "r") (str.to_re "%")))))
(assert (= PCTEMP_LHS_5 PCTEMP_LHS_4))
(assert (not (str.in_re PCTEMP_LHS_6 (re.++ (str.to_re "%") (str.to_re "r") (str.to_re "e") (str.to_re "w") (str.to_re "r") (str.to_re "i") (str.to_re "t") (str.to_re "e") (str.to_re "M") (str.to_re "i") (str.to_re "m") (str.to_re "e") (str.to_re "%")))))
(assert (= PCTEMP_LHS_6 PCTEMP_LHS_5))
(assert (not (str.in_re PCTEMP_LHS_7 (re.++ (str.to_re "%") (str.to_re "r") (str.to_re "e") (str.to_re "w") (str.to_re "r") (str.to_re "i") (str.to_re "t") (str.to_re "e") (str.to_re "M") (str.to_re "i") (str.to_re "m") (str.to_re "e") (str.to_re "%")))))
(assert (= PCTEMP_LHS_7 PCTEMP_LHS_6))
(assert (= T_8 (= "" PCTEMP_LHS_7)))
(assert T_8)
(assert (= T_9 (not (= PCTEMP_LHS_7 "string"))))
(assert (= T_a (not T_9)))
(assert T_a)
(assert (= T_b (not (= PCTEMP_LHS_7 "string"))))
(assert (= T_c (not T_b)))
(assert T_c)
(assert (= T_d (not (= PCTEMP_LHS_7 "string"))))
(assert (= T_e (not T_d)))
(assert T_e)
(assert (= T_f (not (= PCTEMP_LHS_7 "string"))))
(assert (= T_10 (not T_f)))
(assert T_10)
(assert (= T_11 (not (= "" PCTEMP_LHS_7))))
(assert T_11)
(assert (= T_13 (not T_12)))
(assert T_13)
(assert (= T_15 (not T_14)))
(assert T_15)
(assert (= T_17 (not T_16)))
(assert T_17)
(assert (= T_18 (str.++ T1_33 T2_33)))
(assert (= T2_33 PCTEMP_LHS_7))
(assert (= T1_33 ""))
(assert (= T_1a (str.len PCTEMP_LHS_7)))
(assert (= T_1b (< 0 T_1a)))
(assert T_1b)
(assert (= T_1c PCTEMP_LHS_7_idx_0))
(assert (= T_1e (not (= "" T_1d))))
(assert T_1e)
(assert (= T_1f PCTEMP_LHS_7_idx_0))
(assert (= T_22 (= PCTEMP_LHS_9 "TABLE")))
(assert (= T_23 (not T_22)))
(assert T_23)
(assert (= T_24 (= PCTEMP_LHS_9 "TABLE")))
(assert (= T_25 (not T_24)))
(assert T_25)
(assert (= T_26 (str.len PCTEMP_LHS_7)))
(assert (= T_27 (< 1 T_26)))
(assert (= T_28 (not T_27)))
(assert T_28)
(assert (= T_29 PCTEMP_LHS_7_idx_0))
(assert (= T_2b (= T_2a 1)))
(assert T_2b)
(assert (= T_2c PCTEMP_LHS_7_idx_0))
(assert (= T_2e (str.len PCTEMP_LHS_7)))
(assert (= T_2f (< 1 T_2e)))
(assert (= T_30 (not T_2f)))
(assert T_30)
(assert (= T_31 (str.len PCTEMP_LHS_7)))
(assert (= T_32 (< 1 T_31)))
(assert (= T_33 (not T_32)))
(assert T_33)
(assert (= T_34 PCTEMP_LHS_7_idx_0))
(assert (= T_36 (not (= "" T_35))))
(assert T_36)
(assert (= T_37 PCTEMP_LHS_7_idx_0))
(assert (= T_3a (= PCTEMP_LHS_11 "TABLE")))
(assert (= T_3b (not T_3a)))
(assert T_3b)
(assert (= T_3c (= PCTEMP_LHS_11 "TABLE")))
(assert (= T_3d (not T_3c)))
(assert T_3d)
(assert (= T_3e PCTEMP_LHS_7_idx_0))
(assert (= T_40 (= T_3f 1)))
(assert T_40)
(assert (= T_41 (str.len PCTEMP_LHS_7)))
(assert (= T_42 (not (= 0 T_41))))
(assert (= T_43 (not T_42)))
(assert T_43)
(check-sat)

